MARKOV
9
3 27 9 3 3 18 2 3 3 
14
1 0
1 1
1 2
1 3
1 4
1 5
1 6
1 7
1 8
2 0 1
2 1 2
2 2 4
2 5 6
2 5 7

3
0.014963 0.000001 1.000000 
27
0.000034 0.000008 0.000001 0.021278 0.027963 0.014098 0.005025 0.076515 0.000071 0.001081 0.000591 0.000001 0.003194 0.004410 0.000693 0.000001 0.000303 0.000031 0.003100 0.173712 0.000788 0.052160 1.000000 0.047732 0.000728 0.030049 0.071837 
9
0.000001 0.000001 0.000001 0.000001 0.000001 0.000001 0.000103 1.000000 0.000001 
3
0.000003 0.000001 1.000000 
3
0.106873 0.000025 1.000000 
18
0.000020 0.001729 0.002484 0.117398 0.000461 0.000001 0.000094 0.007356 0.000412 0.001603 0.002340 0.000001 0.000025 1.000000 0.026773 0.000002 0.015819 0.000448 
2
0.341154 1.000000 
3
0.000001 0.000001 0.000384 
3
0.000001 0.000010 0.002948 
81
1.000000 1.000000 1.000000 1.000000 1.000000 1.000000 1.000000 1.000000 1.000000 1.000000 1.000000 1.000000 1.000000 1.000000 1.000000 1.000000 1.000000 1.000000 0.175019 1.000000 1.000000 1.000000 1.000000 1.000000 1.000000 1.000000 1.000000 1.000000 1.000000 1.000000 1.000000 1.000000 1.000000 1.000000 1.000000 1.000000 1.000000 1.000000 1.000000 1.000000 1.000000 1.000000 1.000000 1.000000 1.000000 1.000000 1.000000 1.000000 1.000000 1.000000 1.000000 1.000000 1.000000 1.000000 1.000000 1.000000 1.000000 1.000000 1.000000 1.000000 1.000000 1.000000 1.000000 1.000000 1.000000 1.000000 1.000000 1.000000 1.000000 1.000000 1.000000 1.000000 1.000000 1.000000 1.000000 1.000000 1.000000 1.000000 1.000000 1.000000 1.000000 
243
1.000000 1.000000 1.000000 1.000000 1.000000 1.000000 0.000001 0.000001 0.000001 1.000000 1.000000 1.000000 1.000000 1.000000 1.000000 0.000001 0.000001 0.000001 1.000000 1.000000 1.000000 1.000000 1.000000 1.000000 0.000001 0.000001 0.000001 1.000000 1.000000 1.000000 1.000000 1.000000 1.000000 1.000000 1.000000 0.000045 1.000000 1.000000 1.000000 1.000000 1.000000 1.000000 0.945498 1.000000 0.000045 1.000000 1.000000 1.000000 1.000000 1.000000 1.000000 1.000000 1.000000 0.000045 1.000000 1.000000 1.000000 1.000000 1.000000 1.000000 1.000000 1.000000 0.000432 1.000000 1.000000 1.000000 1.000000 1.000000 1.000000 0.735694 1.000000 0.000004 1.000000 1.000000 1.000000 1.000000 1.000000 1.000000 1.000000 1.000000 0.000224 1.000000 1.000000 1.000000 1.000000 1.000000 1.000000 1.000000 1.000000 1.000000 1.000000 1.000000 1.000000 1.000000 1.000000 1.000000 1.000000 1.000000 1.000000 1.000000 1.000000 1.000000 1.000000 1.000000 1.000000 1.000000 1.000000 1.000000 1.000000 1.000000 1.000000 1.000000 1.000000 1.000000 1.000000 1.000000 1.000000 1.000000 1.000000 1.000000 1.000000 1.000000 1.000000 1.000000 1.000000 1.000000 1.000000 1.000000 1.000000 1.000000 1.000000 1.000000 1.000000 1.000000 1.000000 1.000000 1.000000 1.000000 1.000000 1.000000 1.000000 1.000000 1.000000 1.000000 1.000000 1.000000 1.000000 1.000000 1.000000 1.000000 0.011727 1.000000 1.000000 1.000000 1.000000 1.000000 1.000000 1.000000 1.000000 0.037852 1.000000 1.000000 1.000000 1.000000 1.000000 1.000000 1.000000 1.000000 1.000000 1.000000 1.000000 1.000000 1.000000 1.000000 1.000000 1.000000 1.000000 1.000000 1.000000 1.000000 1.000000 1.000000 1.000000 1.000000 1.000000 1.000000 1.000000 1.000000 1.000000 1.000000 1.000000 1.000000 1.000000 1.000000 1.000000 1.000000 1.000000 1.000000 1.000000 1.000000 1.000000 1.000000 1.000000 1.000000 1.000000 1.000000 1.000000 1.000000 1.000000 1.000000 1.000000 1.000000 1.000000 1.000000 1.000000 1.000000 1.000000 1.000000 1.000000 1.000000 1.000000 1.000000 1.000000 1.000000 1.000000 1.000000 1.000000 1.000000 1.000000 1.000000 1.000000 1.000000 1.000000 1.000000 1.000000 1.000000 1.000000 1.000000 1.000000 1.000000 1.000000 1.000000 1.000000 
27
1.000000 1.000000 0.000001 1.000000 1.000000 0.000001 1.000000 1.000000 0.000001 1.000000 1.000000 1.000000 1.000000 1.000000 1.000000 1.000000 1.000000 1.000000 1.000000 1.000000 1.000000 1.000000 1.000000 1.000000 1.000000 1.000000 1.000000 
36
1.000000 1.000000 1.000000 1.000000 1.000000 1.000000 1.000000 1.000000 1.000000 1.000000 1.000000 1.000000 0.074492 1.000000 0.004127 1.000000 0.000010 0.000045 0.000014 0.001120 0.015368 1.000000 0.000020 0.001973 1.000000 1.000000 1.000000 1.000000 1.000000 1.000000 1.000000 1.000000 1.000000 1.000000 1.000000 1.000000 
54
1.000000 1.000000 0.000001 1.000000 1.000000 0.000001 1.000000 1.000000 0.000001 1.000000 1.000000 0.000017 1.000000 1.000000 0.000001 1.000000 1.000000 0.000001 1.000000 1.000000 1.000000 1.000000 1.000000 1.000000 1.000000 1.000000 1.000000 1.000000 1.000000 1.000000 1.000000 1.000000 1.000000 1.000000 1.000000 1.000000 1.000000 1.000000 1.000000 1.000000 1.000000 1.000000 1.000000 1.000000 1.000000 1.000000 1.000000 1.000000 1.000000 1.000000 1.000000 1.000000 1.000000 1.000000 
